Version identifier: 20.1.0.0 | 2020-11-10 | 9bedb6d68
CPXPARAM_Threads                                 1
CPXPARAM_TimeLimit                               7200
CPXPARAM_MIP_Tolerances_MIPGap                   0
Generic callback                                 0x60
1 of 1 MIP starts provided solutions.
MIP start 'm1' defined initial solution with objective 499.2940.
Tried aggregator 1 time.
Reduced MIP has 500501 rows, 501001 columns, and 1501000 nonzeros.
Reduced MIP has 1000 binaries, 0 generals, 0 SOSs, and 0 indicators.
Presolve time = 0.52 sec. (474.50 ticks)
Probing time = 0.07 sec. (62.57 ticks)
Tried aggregator 1 time.
Reduced MIP has 500501 rows, 501001 columns, and 1501000 nonzeros.
Reduced MIP has 1000 binaries, 0 generals, 0 SOSs, and 0 indicators.
Presolve time = 0.50 sec. (466.39 ticks)
Probing time = 0.07 sec. (62.57 ticks)
MIP emphasis: balance optimality and feasibility.
MIP search method: dynamic search.
Parallel mode: none, using 1 thread.
Root relaxation solution time = 0.17 sec. (192.72 ticks)

        Nodes                                         Cuts/
   Node  Left     Objective  IInf  Best Integer    Best Bound    ItCnt     Gap

*     0+    0                          499.2940     2716.0000           443.97%
      0     0      501.5843     4      499.2940     2716.0000        0  443.97%
      0     2      501.5843     4      499.2940      501.5843        0    0.46%
Elapsed time = 574.61 sec. (497381.03 ticks, tree = 0.01 MB, solutions = 1)
      1     3      501.4665     4      499.2940      501.5841      859    0.46%
      2     4      499.9165     2      499.2940      501.4664     2336    0.44%
*     3     1      integral     0      501.4551      501.4664     2771    0.00%
      3     1      501.4551     0      501.4551      501.4659     2771    0.00%
      4     0        cutoff            501.4551      501.4551     2820    0.00%

User cuts applied:  9

Root node processing (before b&c):
  Real time             =  574.56 sec. (497290.18 ticks)
Sequential b&c:
  Real time             =   70.79 sec. (45123.74 ticks)
                          ------------
Total (root+branch&cut) =  645.36 sec. (542413.92 ticks)
@Parameters: 
is_S_cut                                true
is_add_all_yinF                         true
is_start_value                          true
is_usercut                              true
is_visualization                        false
uc_only_rootnode                        false

data                                    Qi
fn                                      data/Qi/instance_500_1000.csv
mode                                    ZLP
solver                                  cplex

p                                       2
r                                       50

EPS                                     1.0e-06
EPS_vio                                 1.0e-04
beta                                    0.10
gap                                     0.00
nodelimit                               Inf
timelimit                               7200.00


@PrintInfos
ItCnt: 2820
Current gap: 0.00 %
Termination Status: OPTIMAL
Primal Status: FEASIBLE_POINT
Solve Time: 645.36 sec
Objective Value: 501.455051
Number of Nodes:      5

CutInfo: [phase] num / time (sec) 
ZLP             [phase1]     0 / 0.00 [rLC]     4 / 5.20 [rUC]     2 / 2.14 [sLC]     1 / 1.37 [sUC]     6 / 7.21 
OldSubmodular   [phase1]     0 / 0.00 [rLC]     0 / 0.00 [rUC]     0 / 0.00 [sLC]     0 / 0.00 [sUC]     0 / 0.00 
NewSubmodular   [phase1]     0 / 0.00 [rLC]     0 / 0.00 [rUC]     0 / 0.00 [sLC]     0 / 0.00 [sUC]     0 / 0.00 
PMP             [phase1]     0 / 0.00 [rLC]     5 / 1.72 [rUC]     2 / 0.72 [sLC]     2 / 0.63 [sUC]     8 / 2.69 
Separation Round: [phase1] 0  [rLC] 5  [rUC] 2  [sLC] 2  [sUC] 8
Root Best Bound 501.466394
Root Best Integer: 499.294005
Best Bound: 501.455051
Best Integer: 501.455051

